# Solution for model GasLib-40
# Objective value = 5.3011324333263758e+01
loadshed[innode_1] 0
loadshed[innode_2] 0
loadshed[innode_3] 0
loadshed[innode_4] 0
loadshed[innode_5] 0
loadshed[innode_6] 0
loadshed[innode_7] 0
loadshed[innode_8] 0
loadshed[source_1] -1.0157829472929492e-01
loadshed[source_2] 1.9041137957992071e-01
loadshed[source_3] 2.4649002975453571e-01
loadshed[sink_1] 3.7721588567682351e-01
loadshed[sink_2] 0
loadshed[sink_3] 0
loadshed[sink_4] 0
loadshed[sink_5] 0
loadshed[sink_6] 0
loadshed[sink_7] 0
loadshed[sink_8] 0
loadshed[sink_9] 0
loadshed[sink_10] 0
loadshed[sink_11] 0
loadshed[sink_12] 1
loadshed[sink_13] 0
loadshed[sink_14] 0
loadshed[sink_15] 0
loadshed[sink_16] 0
loadshed[sink_17] 0
loadshed[sink_18] 0
loadshed[sink_19] 0
loadshed[sink_20] 0
loadshed[sink_21] 1
loadshed[sink_22] 0
loadshed[sink_23] 0
loadshed[sink_24] 8.6424088884121464e-01
loadshed[sink_25] 0
loadshed[sink_26] 0
loadshed[sink_27] 0
loadshed[sink_28] 0
loadshed[sink_29] 0
flow[source_1,sink_3] 174.148818607725
flow[innode_1,sink_16] 1.6354166666666970e+01
flow[innode_6,sink_13] -4.6434338377635740e+00
flow[sink_13,sink_14] -2.0997600504430242e+01
flow[sink_14,sink_10] -3.7351767171096910e+01
flow[sink_25,sink_26] 1.1598302586162860e+02
flow[sink_26,sink_9] 0
flow[sink_9,sink_18] -1.6354166666669244e+01
flow[sink_26,sink_4] 9.9628859194961990e+01
flow[sink_4,sink_20] 0
flow[sink_18,sink_6] -3.2708333333335915e+01
flow[sink_25,innode_8] -1.4144048527438861e+02
flow[sink_6,sink_7] -7.5601781869662830e+01
flow[sink_6,sink_22] 2.6539281869660286e+01
flow[sink_7,sink_24] 2.2202271304093029e+00
flow[sink_22,sink_1] 1.0185115202993616e+01
flow[sink_24,sink_21] 0
flow[sink_21,sink_12] 0
flow[sink_7,sink_5] -9.4176175666738814e+01
flow[sink_5,sink_17] -1.1053034233340549e+02
flow[sink_17,sink_4] -8.3274692528295333e+01
flow[sink_17,sink_8] -4.3609816471776938e+01
flow[sink_3,sink_23] 16.3541666666697
flow[sink_8,sink_20] -5.9963983138443609e+01
flow[sink_25,sink_20] 7.6318149805110352e+01
flow[sink_25,sink_15] -62.5714232212534
flow[sink_15,sink_29] -7.8925589887920069e+01
flow[sink_29,sink_28] 1.6354166666667879e+01
flow[sink_29,sink_2] 1.6354166666684250e+01
flow[sink_2,sink_15] 0
flow[sink_29,innode_7] -1.2798808988793823e+02
flow[innode_4,sink_19] 4.6173908181941030e+01
flow[sink_19,innode_3] 4.2169797625072015e+01
flow[innode_4,innode_5] 7.2948692322489478e+01
flow[sink_27,innode_5] -7.2948692322489478e+01
flow[sink_27,sink_19] 5.6594525655822814e+01
flow[sink_10,sink_11] 3.2708333333333641e+01
flow[sink_10,innode_2] -44.2444695460252
flow[sink_10,innode_3] -4.2169797625072015e+01
flow[innode_6,sink_25] 4.6434338377635740e+00
flow[sink_11,innode_1] 1.6354166666666970e+01
flow[sink_19,innode_2] 44.2444695460252
flow[source_3,innode_4] 1.1912260050443051e+02
flow[source_2,innode_7] 1.2798808988793823e+02
flow[sink_3,innode_8] 1.4144048527438861e+02
pressure[innode_1] 7.6652423069005948e+01
pressure[innode_2] 7.9142627327760962e+01
pressure[innode_3] 79.0492470861318
pressure[innode_4] 81.01325
pressure[innode_5] 8.0963072042824137e+01
pressure[innode_6] 7.4974262767290583e+01
pressure[innode_7] 81.01325
pressure[innode_8] 8.0431137026654426e+01
pressure[source_1] 81.01325
pressure[source_2] 81.01325
pressure[source_3] 81.01325
pressure[sink_1] 1.01325
pressure[sink_2] 7.7175800489800082e+01
pressure[sink_3] 8.0431137026654426e+01
pressure[sink_4] 5.4138575359863914e+01
pressure[sink_5] 4.2722379633666030e+01
pressure[sink_6] 2.5174123749537851e+00
pressure[sink_7] 3.5552446326509
pressure[sink_8] 52.6016028722405
pressure[sink_9] 1.0522599956475474e+00
pressure[sink_10] 76.8041243766095
pressure[sink_11] 7.6652423069005948e+01
pressure[sink_12] 1.01325
pressure[sink_13] 74.9998612420483
pressure[sink_14] 7.5037438236751058e+01
pressure[sink_15] 7.5277795140874673e+01
pressure[sink_16] 7.5630773234188268e+01
pressure[sink_17] 5.0956091201243140e+01
pressure[sink_18] 1.6440024894473018e+00
pressure[sink_19] 7.9142627327760962e+01
pressure[sink_20] 5.6780249207242406e+01
pressure[sink_21] 1.01325
pressure[sink_22] 1.6757485231658777e+00
pressure[sink_23] 8.0266419014994639e+01
pressure[sink_24] 1.01325
pressure[sink_25] 7.4974262767290583e+01
pressure[sink_26] 6.6805646368909890e+01
pressure[sink_27] 8.0357732691237217e+01
pressure[sink_28] 7.7294787714646560e+01
pressure[sink_29] 7.7590069988263735e+01
interdiction[source_1,sink_3] 0
interdiction[innode_1,sink_16] 0
interdiction[innode_6,sink_13] 0
interdiction[sink_13,sink_14] 0
interdiction[sink_14,sink_10] 0
interdiction[sink_25,sink_26] 0
interdiction[sink_26,sink_9] 1
interdiction[sink_9,sink_18] 0
interdiction[sink_26,sink_4] 0
interdiction[sink_4,sink_20] 1
interdiction[sink_18,sink_6] 0
interdiction[sink_25,innode_8] 0
interdiction[sink_6,sink_7] 0
interdiction[sink_6,sink_22] 0
interdiction[sink_7,sink_24] 0
interdiction[sink_22,sink_1] 0
interdiction[sink_24,sink_21] 0
interdiction[sink_21,sink_12] 0
interdiction[sink_7,sink_5] 0
interdiction[sink_5,sink_17] 0
interdiction[sink_17,sink_4] 0
interdiction[sink_17,sink_8] 0
interdiction[sink_3,sink_23] 0
interdiction[sink_8,sink_20] 0
interdiction[sink_25,sink_20] 0
interdiction[sink_25,sink_15] 0
interdiction[sink_15,sink_29] 0
interdiction[sink_29,sink_28] 0
interdiction[sink_29,sink_2] 0
interdiction[sink_2,sink_15] 1
interdiction[sink_29,innode_7] 0
interdiction[innode_4,sink_19] 0
interdiction[sink_19,innode_3] 0
interdiction[innode_4,innode_5] 0
interdiction[sink_27,innode_5] 0
interdiction[sink_27,sink_19] 0
interdiction[sink_10,sink_11] 0
interdiction[sink_10,innode_2] 0
interdiction[sink_10,innode_3] 0
interdiction[innode_6,sink_25] 0
interdiction[sink_11,innode_1] 0
interdiction[sink_19,innode_2] 0
interdiction[source_3,innode_4] 0
interdiction[source_2,innode_7] 0
interdiction[sink_3,innode_8] 0
WCcheckFlow[source_1,sink_3] 39
WCcheckFlow[innode_1,sink_16] 1
WCcheckFlow[innode_6,sink_13] 13
WCcheckFlow[sink_13,sink_14] 12
WCcheckFlow[sink_14,sink_10] 11
WCcheckFlow[sink_25,sink_26] 15
WCcheckFlow[sink_26,sink_9] 0
WCcheckFlow[sink_9,sink_18] -1
WCcheckFlow[sink_26,sink_4] 14
WCcheckFlow[sink_4,sink_20] 0
WCcheckFlow[sink_18,sink_6] -2
WCcheckFlow[sink_25,innode_8] -36
WCcheckFlow[sink_6,sink_7] -5
WCcheckFlow[sink_6,sink_22] 2
WCcheckFlow[sink_7,sink_24] 3
WCcheckFlow[sink_22,sink_1] 1
WCcheckFlow[sink_24,sink_21] 2
WCcheckFlow[sink_21,sink_12] 1
WCcheckFlow[sink_7,sink_5] -9
WCcheckFlow[sink_5,sink_17] -10
WCcheckFlow[sink_17,sink_4] -13
WCcheckFlow[sink_17,sink_8] 2
WCcheckFlow[sink_3,sink_23] 1
WCcheckFlow[sink_8,sink_20] 1
WCcheckFlow[sink_25,sink_20] 0
WCcheckFlow[sink_25,sink_15] 6
WCcheckFlow[sink_15,sink_29] 5
WCcheckFlow[sink_29,sink_28] 1
WCcheckFlow[sink_29,sink_2] 1
WCcheckFlow[sink_2,sink_15] 0
WCcheckFlow[sink_29,innode_7] 2
WCcheckFlow[innode_4,sink_19] -4
WCcheckFlow[sink_19,innode_3] -5
WCcheckFlow[innode_4,innode_5] 2
WCcheckFlow[sink_27,innode_5] -1
WCcheckFlow[sink_27,sink_19] 0
WCcheckFlow[sink_10,sink_11] 3
WCcheckFlow[sink_10,innode_2] 1
WCcheckFlow[sink_10,innode_3] 6
WCcheckFlow[innode_6,sink_25] -14
WCcheckFlow[sink_11,innode_1] 2
WCcheckFlow[sink_19,innode_2] 0
WCcheckFlow[source_3,innode_4] -1
WCcheckFlow[source_2,innode_7] -1
WCcheckFlow[sink_3,innode_8] 37
